10 10 3

0 275 324 122 255 98 96 117 127 62 
292 0 195 73 330 255 311 241 88 141 
111 431 0 205 233 195 133 350 251 411 
121 449 106 0 270 224 136 342 429 184 
388 252 262 401 0 495 163 180 324 368 
441 271 163 289 333 0 300 444 272 445 
76 328 402 194 155 350 0 250 375 73 
92 423 209 226 311 167 194 0 418 368 
307 97 192 382 245 413 495 240 0 452 
50 390 431 445 172 465 102 316 327 0 

343.86 0 2
343.86 1 8
343.86 2 7
343.86 3 4
343.86 4 3
343.86 5 1
343.86 6 4
343.86 7 8
343.86 8 9
343.86 9 0

